\ENCODING=ISO-8859-1
\Problem name: ilog.cplex

Maximize
 obj: 338 x(0)#0 + 955 x(1)#1 + 729 x(2)#2 + 966 x(3)#3 + 999 x(4)#4
      + 940 x(5)#5 + 967 x(6)#6 + 627 x(7)#7 + 1206 x(8)#8 + 840 x(9)#9
      + 548 x(10)#10 + 721 x(11)#11 + 575 x(12)#12 + 714 x(13)#13
      + 501 x(14)#14 + 837 x(15)#15 + 613 x(16)#16 + 1048 x(17)#17
      + 893 x(18)#18 + 482 x(19)#19 + 825 x(20)#20 + 708 x(21)#21
      + 380 x(22)#22 + 717 x(23)#23 + 810 x(24)#24 + 467 x(25)#25
      + 966 x(26)#26 + 402 x(27)#27 + 703 x(28)#28 + 419 x(29)#29
      + 1003 x(30)#30 + 765 x(31)#31 + 899 x(32)#32 + 619 x(33)#33
      + 1132 x(34)#34 + 740 x(35)#35 + 952 x(36)#36 + 576 x(37)#37
      + 916 x(38)#38 + 772 x(39)#39 + 825 x(40)#40 + 771 x(41)#41
      + 785 x(42)#42 + 541 x(43)#43 + 800 x(44)#44 + 890 x(45)#45
      + 714 x(46)#46 + 820 x(47)#47 + 891 x(48)#48 + 509 x(49)#49
      + 542 x(50)#50 + 574 x(51)#51 + 493 x(52)#52 + 647 x(53)#53
      + 1026 x(54)#54 + 875 x(55)#55 + 803 x(56)#56 + 534 x(57)#57
      + 869 x(58)#58 + 1003 x(59)#59 + 763 x(60)#60 + 610 x(61)#61
      + 692 x(62)#62 + 856 x(63)#63 + 625 x(64)#64 + 749 x(65)#65
      + 858 x(66)#66 + 1021 x(67)#67 + 619 x(68)#68 + 693 x(69)#69
      + 627 x(70)#70 + 944 x(71)#71 + 1018 x(72)#72 + 467 x(73)#73
      + 910 x(74)#74 + 1068 x(75)#75 + 693 x(76)#76 + 824 x(77)#77
      + 972 x(78)#78 + 877 x(79)#79 + 500 x(80)#80 + 849 x(81)#81
      + 659 x(82)#82 + 590 x(83)#83 + 677 x(84)#84 + 988 x(85)#85
      + 1158 x(86)#86 + 623 x(87)#87 + 379 x(88)#88 + 1095 x(89)#89
      + 822 x(90)#90 + 882 x(91)#91 + 934 x(92)#92 + 646 x(93)#93
      + 571 x(94)#94 + 714 x(95)#95 + 740 x(96)#96 + 401 x(97)#97
      + 925 x(98)#98 + 948 x(99)#99 + 1049 x(100)#100 + 470 x(101)#101
      + 645 x(102)#102 + 680 x(103)#103 + 922 x(104)#104 + 839 x(105)#105
      + 605 x(106)#106 + 550 x(107)#107 + 636 x(108)#108 + 886 x(109)#109
      + 916 x(110)#110 + 1006 x(111)#111 + 742 x(112)#112 + 515 x(113)#113
      + 985 x(114)#114 + 686 x(115)#115 + 1169 x(116)#116 + 787 x(117)#117
      + 655 x(118)#118 + 553 x(119)#119 + 853 x(120)#120 + 875 x(121)#121
      + 714 x(122)#122 + 376 x(123)#123 + 697 x(124)#124 + 1096 x(125)#125
      + 1016 x(126)#126 + 530 x(127)#127 + 979 x(128)#128 + 479 x(129)#129
      + 604 x(130)#130 + 642 x(131)#131 + 602 x(132)#132 + 447 x(133)#133
      + 713 x(134)#134 + 548 x(135)#135 + 454 x(136)#136 + 928 x(137)#137
      + 644 x(138)#138 + 868 x(139)#139 + 747 x(140)#140 + 659 x(141)#141
      + 1072 x(142)#142 + 666 x(143)#143 + 457 x(144)#144 + 509 x(145)#145
      + 627 x(146)#146 + 863 x(147)#147 + 502 x(148)#148 + 751 x(149)#149
      + 626 x(150)#150 + 826 x(151)#151 + 836 x(152)#152 + 940 x(153)#153
      + 717 x(154)#154 + 938 x(155)#155 + 925 x(156)#156 + 641 x(157)#157
      + 978 x(158)#158 + 470 x(159)#159 + 677 x(160)#160 + 870 x(161)#161
      + 545 x(162)#162 + 767 x(163)#163 + 639 x(164)#164 + 815 x(165)#165
      + 894 x(166)#166 + 659 x(167)#167 + 320 x(168)#168 + 705 x(169)#169
      + 614 x(170)#170 + 771 x(171)#171 + 705 x(172)#172 + 545 x(173)#173
      + 896 x(174)#174 + 973 x(175)#175 + 522 x(176)#176 + 290 x(177)#177
      + 499 x(178)#178 + 820 x(179)#179 + 821 x(180)#180 + 386 x(181)#181
      + 806 x(182)#182 + 585 x(183)#183 + 948 x(184)#184 + 1062 x(185)#185
      + 830 x(186)#186 + 863 x(187)#187 + 1092 x(188)#188 + 386 x(189)#189
      + 1017 x(190)#190 + 458 x(191)#191 + 1055 x(192)#192 + 671 x(193)#193
      + 877 x(194)#194 + 973 x(195)#195 + 702 x(196)#196 + 716 x(197)#197
      + 492 x(198)#198 + 624 x(199)#199 + 541 x(200)#200 + 896 x(201)#201
      + 1065 x(202)#202 + 984 x(203)#203 + 794 x(204)#204 + 955 x(205)#205
      + 696 x(206)#206 + 866 x(207)#207 + 457 x(208)#208 + 572 x(209)#209
      + 437 x(210)#210 + 523 x(211)#211 + 803 x(212)#212 + 973 x(213)#213
      + 431 x(214)#214 + 540 x(215)#215 + 678 x(216)#216 + 624 x(217)#217
      + 1184 x(218)#218 + 563 x(219)#219 + 748 x(220)#220 + 901 x(221)#221
      + 350 x(222)#222 + 621 x(223)#223 + 838 x(224)#224 + 1072 x(225)#225
      + 593 x(226)#226 + 1012 x(227)#227 + 883 x(228)#228 + 998 x(229)#229
      + 458 x(230)#230 + 899 x(231)#231 + 751 x(232)#232 + 708 x(233)#233
      + 968 x(234)#234 + 794 x(235)#235 + 710 x(236)#236 + 541 x(237)#237
      + 688 x(238)#238 + 690 x(239)#239 + 733 x(240)#240 + 879 x(241)#241
      + 812 x(242)#242 + 599 x(243)#243 + 746 x(244)#244 + 620 x(245)#245
      + 740 x(246)#246 + 840 x(247)#247 + 722 x(248)#248 + 962 x(249)#249
Subject To
 c1: 168 x(0)#0 + 82 x(1)#1 + 880 x(2)#2 + 947 x(3)#3 + 795 x(4)#4 + 861 x(5)#5
     + 529 x(6)#6 + 423 x(7)#7 + 911 x(8)#8 + 226 x(9)#9 + 243 x(10)#10
     + 843 x(11)#11 + 518 x(12)#12 + 895 x(13)#13 + 15 x(14)#14 + 789 x(15)#15
     + 115 x(16)#16 + 921 x(17)#17 + 336 x(18)#18 + 613 x(19)#19 + 515 x(20)#20
     + 382 x(21)#21 + 9 x(22)#22 + 39 x(23)#23 + 448 x(24)#24 + 418 x(25)#25
     + 429 x(26)#26 + 470 x(27)#27 + 228 x(28)#28 + 153 x(29)#29 + 921 x(30)#30
     + 665 x(31)#31 + 887 x(32)#32 + 369 x(33)#33 + 827 x(34)#34 + 991 x(35)#35
     + 289 x(36)#36 + 557 x(37)#37 + 38 x(38)#38 + 378 x(39)#39 + 775 x(40)#40
     + 449 x(41)#41 + 348 x(42)#42 + 349 x(43)#43 + 246 x(44)#44 + 490 x(45)#45
     + 75 x(46)#46 + 301 x(47)#47 + 72 x(48)#48 + 657 x(49)#49 + 115 x(50)#50
     + 144 x(51)#51 + 433 x(52)#52 + 722 x(53)#53 + 564 x(54)#54 + 512 x(55)#55
     + 616 x(56)#56 + 504 x(57)#57 + 690 x(58)#58 + 518 x(59)#59 + 367 x(60)#60
     + 47 x(61)#61 + 525 x(62)#62 + 887 x(63)#63 + 721 x(64)#64 + 511 x(65)#65
     + 587 x(66)#66 + 719 x(67)#67 + 29 x(68)#68 + 411 x(69)#69 + 965 x(70)#70
     + 608 x(71)#71 + 847 x(72)#72 + 53 x(73)#73 + 378 x(74)#74 + 865 x(75)#75
     + 841 x(76)#76 + 496 x(77)#77 + 205 x(78)#78 + 814 x(79)#79 + 100 x(80)#80
     + 434 x(81)#81 + 239 x(82)#82 + 548 x(83)#83 + 681 x(84)#84 + 800 x(85)#85
     + 876 x(86)#86 + 992 x(87)#87 + 85 x(88)#88 + 688 x(89)#89 + 14 x(90)#90
     + 868 x(91)#91 + 504 x(92)#92 + 27 x(93)#93 + 676 x(94)#94 + 433 x(95)#95
     + 213 x(96)#96 + 539 x(97)#97 + 961 x(98)#98 + 388 x(99)#99
     + 334 x(100)#100 + 375 x(101)#101 + 708 x(102)#102 + 360 x(103)#103
     + 751 x(104)#104 + 862 x(105)#105 + 315 x(106)#106 + 199 x(107)#107
     + 759 x(108)#108 + 97 x(109)#109 + 886 x(110)#110 + 800 x(111)#111
     + 550 x(112)#112 + 983 x(113)#113 + 524 x(114)#114 + 991 x(115)#115
     + 730 x(116)#116 + 303 x(117)#117 + 705 x(118)#118 + 447 x(119)#119
     + 974 x(120)#120 + 799 x(121)#121 + 18 x(122)#122 + 392 x(123)#123
     + 865 x(124)#124 + 560 x(125)#125 + 526 x(126)#126 + 345 x(127)#127
     + 754 x(128)#128 + 573 x(129)#129 + 476 x(130)#130 + 844 x(131)#131
     + 61 x(132)#132 + 103 x(133)#133 + 388 x(134)#134 + 860 x(135)#135
     + 799 x(136)#136 + 787 x(137)#137 + 711 x(138)#138 + 519 x(139)#139
     + 529 x(140)#140 + 110 x(141)#141 + 942 x(142)#142 + 939 x(143)#143
     + 462 x(144)#144 + 509 x(145)#145 + 516 x(146)#146 + 2 x(147)#147
     + 355 x(148)#148 + 319 x(149)#149 + 458 x(150)#150 + 589 x(151)#151
     + 556 x(152)#152 + 759 x(153)#153 + 350 x(154)#154 + 554 x(155)#155
     + 817 x(156)#156 + 347 x(157)#157 + 570 x(158)#158 + 173 x(159)#159
     + 730 x(160)#160 + 214 x(161)#161 + 925 x(162)#162 + 64 x(163)#163
     + 904 x(164)#164 + 886 x(165)#165 + 469 x(166)#166 + 306 x(167)#167
     + 527 x(168)#168 + 756 x(169)#169 + 312 x(170)#170 + 584 x(171)#171
     + 285 x(172)#172 + 54 x(173)#173 + 845 x(174)#174 + 655 x(175)#175
     + 28 x(176)#176 + 311 x(177)#177 + 21 x(178)#178 + 237 x(179)#179
     + 407 x(180)#180 + 105 x(181)#181 + 424 x(182)#182 + 106 x(183)#183
     + 93 x(184)#184 + 504 x(185)#185 + 153 x(186)#186 + 409 x(187)#187
     + 728 x(188)#188 + 726 x(189)#189 + 257 x(190)#190 + 214 x(191)#191
     + 749 x(192)#192 + 918 x(193)#193 + 900 x(194)#194 + 79 x(195)#195
     + 633 x(196)#196 + 945 x(197)#197 + 294 x(198)#198 + 875 x(199)#199
     + 392 x(200)#200 + 714 x(201)#201 + 660 x(202)#202 + 516 x(203)#203
     + 469 x(204)#204 + 314 x(205)#205 + 178 x(206)#206 + 811 x(207)#207
     + 200 x(208)#208 + 698 x(209)#209 + 576 x(210)#210 + 639 x(211)#211
     + 571 x(212)#212 + 85 x(213)#213 + 3 x(214)#214 + 429 x(215)#215
     + 771 x(216)#216 + 521 x(217)#217 + 836 x(218)#218 + 143 x(219)#219
     + 342 x(220)#220 + 897 x(221)#221 + 611 x(222)#222 + 205 x(223)#223
     + 33 x(224)#224 + 619 x(225)#225 + 185 x(226)#226 + 819 x(227)#227
     + 319 x(228)#228 + 674 x(229)#229 + 320 x(230)#230 + 951 x(231)#231
     + 841 x(232)#232 + 156 x(233)#233 + 28 x(234)#234 + 25 x(235)#235
     + 824 x(236)#236 + 513 x(237)#237 + 942 x(238)#238 + 785 x(239)#239
     + 851 x(240)#240 + 768 x(241)#241 + 284 x(242)#242 + 818 x(243)#243
     + 72 x(244)#244 + 849 x(245)#245 + 10 x(246)#246 + 896 x(247)#247
     + 229 x(248)#248 + 82 x(249)#249 <= 31410
 c2: 70 x(0)#0 + 994 x(1)#1 + 708 x(2)#2 + 67 x(3)#3 + 303 x(4)#4 + 856 x(5)#5
     + 336 x(6)#6 + 344 x(7)#7 + 363 x(8)#8 + 35 x(9)#9 + 642 x(10)#10
     + 97 x(11)#11 + 187 x(12)#12 + 663 x(13)#13 + 938 x(14)#14 + 899 x(15)#15
     + 719 x(16)#16 + 185 x(17)#17 + 934 x(18)#18 + 836 x(19)#19 + 248 x(20)#20
     + 928 x(21)#21 + 771 x(22)#22 + 169 x(23)#23 + 442 x(24)#24 + 205 x(25)#25
     + 743 x(26)#26 + 160 x(27)#27 + 606 x(28)#28 + 426 x(29)#29 + 795 x(30)#30
     + 12 x(31)#31 + 25 x(32)#32 + 100 x(33)#33 + 409 x(34)#34 + 540 x(35)#35
     + 886 x(36)#36 + 392 x(37)#37 + 561 x(38)#38 + 594 x(39)#39 + 283 x(40)#40
     + 839 x(41)#41 + 50 x(42)#42 + 173 x(43)#43 + 646 x(44)#44 + 881 x(45)#45
     + 275 x(46)#46 + 6 x(47)#47 + 766 x(48)#48 + 658 x(49)#49 + 455 x(50)#50
     + 474 x(51)#51 + 90 x(52)#52 + 263 x(53)#53 + 746 x(54)#54 + 100 x(55)#55
     + 914 x(56)#56 + 360 x(57)#57 + 719 x(58)#58 + 407 x(59)#59 + 367 x(60)#60
     + 74 x(61)#61 + 253 x(62)#62 + 382 x(63)#63 + 131 x(64)#64 + 187 x(65)#65
     + 405 x(66)#66 + 789 x(67)#67 + 327 x(68)#68 + 245 x(69)#69 + 300 x(70)#70
     + 731 x(71)#71 + 753 x(72)#72 + 470 x(73)#73 + 368 x(74)#74 + 798 x(75)#75
     + 562 x(76)#76 + 918 x(77)#77 + 828 x(78)#78 + 93 x(79)#79 + 769 x(80)#80
     + 470 x(81)#81 + 116 x(82)#82 + 251 x(83)#83 + 106 x(84)#84 + 632 x(85)#85
     + 943 x(86)#86 + 9 x(87)#87 + 291 x(88)#88 + 898 x(89)#89 + 440 x(90)#90
     + 688 x(91)#91 + 748 x(92)#92 + 178 x(93)#93 + 307 x(94)#94 + 585 x(95)#95
     + 84 x(96)#96 + 809 x(97)#97 + 960 x(98)#98 + 989 x(99)#99
     + 404 x(100)#100 + 55 x(101)#101 + 369 x(102)#102 + 363 x(103)#103
     + 148 x(104)#104 + 226 x(105)#105 + 418 x(106)#106 + 965 x(107)#107
     + 447 x(108)#108 + 830 x(109)#109 + 797 x(110)#110 + 329 x(111)#111
     + 520 x(112)#112 + 3 x(113)#113 + 411 x(114)#114 + 624 x(115)#115
     + 816 x(116)#116 + 777 x(117)#117 + 291 x(118)#118 + 433 x(119)#119
     + 895 x(120)#120 + 565 x(121)#121 + 186 x(122)#122 + 731 x(123)#123
     + 550 x(124)#124 + 281 x(125)#125 + 886 x(126)#126 + 564 x(127)#127
     + 310 x(128)#128 + 412 x(129)#129 + 106 x(130)#130 + 180 x(131)#131
     + 611 x(132)#132 + 438 x(133)#133 + 504 x(134)#134 + 881 x(135)#135
     + 805 x(136)#136 + 761 x(137)#137 + 938 x(138)#138 + 905 x(139)#139
     + 461 x(140)#140 + 649 x(141)#141 + 303 x(142)#142 + 665 x(143)#143
     + 842 x(144)#144 + 466 x(145)#145 + 750 x(146)#146 + 753 x(147)#147
     + 86 x(148)#148 + 188 x(149)#149 + 636 x(150)#150 + 155 x(151)#151
     + 612 x(152)#152 + 231 x(153)#153 + 310 x(154)#154 + 967 x(155)#155
     + 989 x(156)#156 + 134 x(157)#157 + 604 x(158)#158 + 280 x(159)#159
     + 799 x(160)#160 + 501 x(161)#161 + 19 x(162)#162 + 876 x(163)#163
     + 20 x(164)#164 + 290 x(165)#165 + 666 x(166)#166 + 998 x(167)#167
     + 92 x(168)#168 + 629 x(169)#169 + 895 x(170)#170 + 483 x(171)#171
     + 107 x(172)#172 + 151 x(173)#173 + 225 x(174)#174 + 70 x(175)#175
     + 824 x(176)#176 + 195 x(177)#177 + 540 x(178)#178 + 196 x(179)#179
     + 730 x(180)#180 + 863 x(181)#181 + 748 x(182)#182 + 280 x(183)#183
     + 290 x(184)#184 + 58 x(185)#185 + 466 x(186)#186 + 692 x(187)#187
     + 696 x(188)#188 + 2 x(189)#189 + 767 x(190)#190 + 244 x(191)#191
     + 736 x(192)#192 + 476 x(193)#193 + 412 x(194)#194 + 682 x(195)#195
     + 121 x(196)#196 + 179 x(197)#197 + 733 x(198)#198 + 440 x(199)#199
     + 873 x(200)#200 + 668 x(201)#201 + 865 x(202)#202 + 730 x(203)#203
     + 73 x(204)#204 + 552 x(205)#205 + 59 x(206)#206 + 831 x(207)#207
     + 49 x(208)#208 + 887 x(209)#209 + 30 x(210)#210 + 452 x(211)#211
     + 909 x(212)#212 + 708 x(213)#213 + 386 x(214)#214 + 159 x(215)#215
     + 578 x(216)#216 + 100 x(217)#217 + 920 x(218)#218 + 139 x(219)#219
     + 345 x(220)#220 + 358 x(221)#221 + 135 x(222)#222 + 984 x(223)#223
     + 336 x(224)#224 + 793 x(225)#225 + 68 x(226)#226 + 680 x(227)#227
     + 976 x(228)#228 + 417 x(229)#229 + 275 x(230)#230 + 490 x(231)#231
     + 43 x(232)#232 + 384 x(233)#233 + 265 x(234)#234 + 310 x(235)#235
     + 393 x(236)#236 + 579 x(237)#237 + 293 x(238)#238 + 253 x(239)#239
     + 135 x(240)#240 + 524 x(241)#241 + 306 x(242)#242 + 110 x(243)#243
     + 894 x(244)#244 + 441 x(245)#245 + 462 x(246)#246 + 232 x(247)#247
     + 84 x(248)#248 + 774 x(249)#249 <= 29715
 c3: 935 x(0)#0 + 243 x(1)#1 + 93 x(2)#2 + 880 x(3)#3 + 386 x(4)#4 + 349 x(5)#5
     + 848 x(6)#6 + 36 x(7)#7 + 843 x(8)#8 + 349 x(9)#9 + 370 x(10)#10
     + 291 x(11)#11 + 83 x(12)#12 + 441 x(13)#13 + 226 x(14)#14 + 567 x(15)#15
     + 813 x(16)#16 + 592 x(17)#17 + 977 x(18)#18 + 402 x(19)#19 + 336 x(20)#20
     + 191 x(21)#21 + 192 x(22)#22 + 291 x(23)#23 + 226 x(24)#24 + 772 x(25)#25
     + 374 x(26)#26 + 455 x(27)#27 + 112 x(28)#28 + 956 x(29)#29 + 216 x(30)#30
     + 321 x(31)#31 + 919 x(32)#32 + 37 x(33)#33 + 911 x(34)#34 + 529 x(35)#35
     + 425 x(36)#36 + 202 x(37)#37 + 248 x(38)#38 + 149 x(39)#39 + 897 x(40)#40
     + 802 x(41)#41 + 894 x(42)#42 + 67 x(43)#43 + 638 x(44)#44 + 912 x(45)#45
     + 80 x(46)#46 + 906 x(47)#47 + 767 x(48)#48 + 112 x(49)#49 + 154 x(50)#50
     + 700 x(51)#51 + 818 x(52)#52 + 54 x(53)#53 + 292 x(54)#54 + 124 x(55)#55
     + 788 x(56)#56 + 134 x(57)#57 + 917 x(58)#58 + 118 x(59)#59 + 392 x(60)#60
     + 571 x(61)#61 + 877 x(62)#62 + 339 x(63)#63 + 816 x(64)#64 + 256 x(65)#65
     + 413 x(66)#66 + 705 x(67)#67 + 845 x(68)#68 + 960 x(69)#69 + 775 x(70)#70
     + 668 x(71)#71 + 999 x(72)#72 + 86 x(73)#73 + 557 x(74)#74 + 751 x(75)#75
     + 338 x(76)#76 + 532 x(77)#77 + 987 x(78)#78 + 449 x(79)#79 + 758 x(80)#80
     + 805 x(81)#81 + 364 x(82)#82 + 128 x(83)#83 + 293 x(84)#84 + 497 x(85)#85
     + 613 x(86)#86 + 391 x(87)#87 + 994 x(88)#88 + 595 x(89)#89 + 970 x(90)#90
     + 774 x(91)#91 + 351 x(92)#92 + 100 x(93)#93 + 932 x(94)#94 + 789 x(95)#95
     + 875 x(96)#96 + 37 x(97)#97 + 632 x(98)#98 + 16 x(99)#99 + 925 x(100)#100
     + 590 x(101)#101 + 703 x(102)#102 + 953 x(103)#103 + 219 x(104)#104
     + 186 x(105)#105 + 247 x(106)#106 + 25 x(107)#107 + 809 x(108)#108
     + 487 x(109)#109 + 364 x(110)#110 + 300 x(111)#111 + 722 x(112)#112
     + 239 x(113)#113 + 158 x(114)#114 + 16 x(115)#115 + 768 x(116)#116
     + 264 x(117)#117 + 753 x(118)#118 + 515 x(119)#119 + 220 x(120)#120
     + 419 x(121)#121 + 95 x(122)#122 + 279 x(123)#123 + 420 x(124)#124
     + 887 x(125)#125 + 349 x(126)#126 + 223 x(127)#127 + 719 x(128)#128
     + 683 x(129)#129 + 944 x(130)#130 + 582 x(131)#131 + 401 x(132)#132
     + 541 x(133)#133 + 262 x(134)#134 + 28 x(135)#135 + 167 x(136)#136
     + 717 x(137)#137 + 732 x(138)#138 + 615 x(139)#139 + 130 x(140)#140
     + 745 x(141)#141 + 891 x(142)#142 + 459 x(143)#143 + 132 x(144)#144
     + 455 x(145)#145 + 273 x(146)#146 + 506 x(147)#147 + 707 x(148)#148
     + 348 x(149)#149 + 344 x(150)#150 + 514 x(151)#151 + 608 x(152)#152
     + 343 x(153)#153 + 265 x(154)#154 + 161 x(155)#155 + 254 x(156)#156
     + 293 x(157)#157 + 751 x(158)#158 + 785 x(159)#159 + 204 x(160)#160
     + 666 x(161)#161 + 372 x(162)#162 + 731 x(163)#163 + 697 x(164)#164
     + 884 x(165)#165 + 484 x(166)#166 + 437 x(167)#167 + 58 x(168)#168
     + 232 x(169)#169 + 659 x(170)#170 + 691 x(171)#171 + 765 x(172)#172
     + 57 x(173)#173 + 975 x(174)#174 + 982 x(175)#175 + 834 x(176)#176
     + 124 x(177)#177 + 556 x(178)#178 + 880 x(179)#179 + 494 x(180)#180
     + 60 x(181)#181 + 820 x(182)#182 + 67 x(183)#183 + 680 x(184)#184
     + 734 x(185)#185 + 571 x(186)#186 + 996 x(187)#187 + 736 x(188)#188
     + 461 x(189)#189 + 868 x(190)#190 + 747 x(191)#191 + 866 x(192)#192
     + 395 x(193)#193 + 821 x(194)#194 + 767 x(195)#195 + 926 x(196)#196
     + 404 x(197)#197 + 898 x(198)#198 + 155 x(199)#199 + 180 x(200)#200
     + 682 x(201)#201 + 557 x(202)#202 + 627 x(203)#203 + 706 x(204)#204
     + 495 x(205)#205 + 57 x(206)#206 + 821 x(207)#207 + 446 x(208)#208
     + 319 x(209)#209 + 433 x(210)#210 + 464 x(211)#211 + 970 x(212)#212
     + 729 x(213)#213 + 35 x(214)#214 + 141 x(215)#215 + 490 x(216)#216
     + 361 x(217)#217 + 979 x(218)#218 + 264 x(219)#219 + 895 x(220)#220
     + 87 x(221)#221 + 81 x(222)#222 + 205 x(223)#223 + 473 x(224)#224
     + 373 x(225)#225 + 611 x(226)#226 + 738 x(227)#227 + 654 x(228)#228
     + 740 x(229)#229 + 528 x(230)#230 + 216 x(231)#231 + 125 x(232)#232
     + 419 x(233)#233 + 601 x(234)#234 + 81 x(235)#235 + 561 x(236)#236
     + 612 x(237)#237 + 840 x(238)#238 + 520 x(239)#239 + 423 x(240)#240
     + 815 x(241)#241 + 814 x(242)#242 + 259 x(243)#243 + 198 x(244)#244
     + 234 x(245)#245 + 950 x(246)#246 + 834 x(247)#247 + 168 x(248)#248
     + 695 x(249)#249 <= 31685
 c4: 106 x(0)#0 + 956 x(1)#1 + 220 x(2)#2 + 652 x(3)#3 + 881 x(4)#4
     + 150 x(5)#5 + 634 x(6)#6 + 345 x(7)#7 + 869 x(8)#8 + 667 x(9)#9
     + 139 x(10)#10 + 12 x(11)#11 + 662 x(12)#12 + 10 x(13)#13 + 558 x(14)#14
     + 500 x(15)#15 + 849 x(16)#16 + 379 x(17)#17 + 699 x(18)#18 + 47 x(19)#19
     + 990 x(20)#20 + 447 x(21)#21 + 61 x(22)#22 + 788 x(23)#23 + 652 x(24)#24
     + 545 x(25)#25 + 626 x(26)#26 + 240 x(27)#27 + 180 x(28)#28 + 64 x(29)#29
     + 913 x(30)#30 + 609 x(31)#31 + 680 x(32)#32 + 42 x(33)#33 + 656 x(34)#34
     + 420 x(35)#35 + 946 x(36)#36 + 864 x(37)#37 + 563 x(38)#38 + 686 x(39)#39
     + 676 x(40)#40 + 20 x(41)#41 + 860 x(42)#42 + 661 x(43)#43 + 619 x(44)#44
     + 523 x(45)#45 + 982 x(46)#46 + 613 x(47)#47 + 467 x(48)#48 + 594 x(49)#49
     + 639 x(50)#50 + 457 x(51)#51 + 505 x(52)#52 + 98 x(53)#53 + 960 x(54)#54
     + 279 x(55)#55 + 82 x(56)#56 + 506 x(57)#57 + 694 x(58)#58 + 962 x(59)#59
     + 214 x(60)#60 + 417 x(61)#61 + 998 x(62)#62 + 374 x(63)#63 + 844 x(64)#64
     + 465 x(65)#65 + 834 x(66)#66 + 206 x(67)#67 + 989 x(68)#68 + 522 x(69)#69
     + 14 x(70)#70 + 405 x(71)#71 + 224 x(72)#72 + 540 x(73)#73 + 681 x(74)#74
     + 678 x(75)#75 + 680 x(76)#76 + 97 x(77)#77 + 437 x(78)#78 + 612 x(79)#79
     + 271 x(80)#80 + 310 x(81)#81 + 125 x(82)#82 + 817 x(83)#83 + 809 x(84)#84
     + 560 x(85)#85 + 24 x(86)#86 + 336 x(87)#87 + 121 x(88)#88 + 143 x(89)#89
     + 298 x(90)#90 + 632 x(91)#91 + 428 x(92)#92 + 531 x(93)#93 + 533 x(94)#94
     + 431 x(95)#95 + 87 x(96)#96 + 144 x(97)#97 + 842 x(98)#98 + 610 x(99)#99
     + 985 x(100)#100 + 891 x(101)#101 + 42 x(102)#102 + 749 x(103)#103
     + 816 x(104)#104 + 642 x(105)#105 + 227 x(106)#106 + 304 x(107)#107
     + 157 x(108)#108 + 206 x(109)#109 + 803 x(110)#110 + 292 x(111)#111
     + 727 x(112)#112 + 15 x(113)#113 + 821 x(114)#114 + 584 x(115)#115
     + 664 x(116)#116 + 283 x(117)#117 + 998 x(118)#118 + 101 x(119)#119
     + 129 x(120)#120 + 126 x(121)#121 + 486 x(122)#122 + 35 x(123)#123
     + 70 x(124)#124 + 872 x(125)#125 + 400 x(126)#126 + 386 x(127)#127
     + 545 x(128)#128 + 209 x(129)#129 + 688 x(130)#130 + 249 x(131)#131
     + 407 x(132)#132 + 333 x(133)#133 + 847 x(134)#134 + 295 x(135)#135
     + 173 x(136)#136 + 256 x(137)#137 + 40 x(138)#138 + 866 x(139)#139
     + 393 x(140)#140 + 376 x(141)#141 + 800 x(142)#142 + 842 x(143)#143
     + 641 x(144)#144 + 13 x(145)#145 + 615 x(146)#146 + 69 x(147)#147
     + 20 x(148)#148 + 305 x(149)#149 + 697 x(150)#150 + 121 x(151)#151
     + 649 x(152)#152 + 336 x(153)#153 + 763 x(154)#154 + 507 x(155)#155
     + 43 x(156)#156 + 334 x(157)#157 + 622 x(158)#158 + 18 x(159)#159
     + 769 x(160)#160 + 530 x(161)#161 + 605 x(162)#162 + 826 x(163)#163
     + 991 x(164)#164 + 335 x(165)#165 + 94 x(166)#166 + 858 x(167)#167
     + 359 x(168)#168 + 516 x(169)#169 + 354 x(170)#170 + 941 x(171)#171
     + 461 x(172)#172 + 32 x(173)#173 + 684 x(174)#174 + 88 x(175)#175
     + 237 x(176)#176 + 512 x(177)#177 + 316 x(178)#178 + 832 x(179)#179
     + 629 x(180)#180 + 28 x(181)#181 + 9 x(182)#182 + 177 x(183)#183
     + 802 x(184)#184 + 932 x(185)#185 + 624 x(186)#186 + 631 x(187)#187
     + 588 x(188)#188 + 334 x(189)#189 + 991 x(190)#190 + 269 x(191)#191
     + 888 x(192)#192 + 725 x(193)#193 + 512 x(194)#194 + 294 x(195)#195
     + 737 x(196)#196 + 440 x(197)#197 + 125 x(198)#198 + 118 x(199)#199
     + 622 x(200)#200 + 71 x(201)#201 + 88 x(202)#202 + 656 x(203)#203
     + 697 x(204)#204 + 886 x(205)#205 + 784 x(206)#206 + 94 x(207)#207
     + 621 x(208)#208 + 464 x(209)#209 + 187 x(210)#210 + 218 x(211)#211
     + 973 x(212)#212 + 442 x(213)#213 + 126 x(214)#214 + 151 x(215)#215
     + 428 x(216)#216 + 516 x(217)#217 + 181 x(218)#218 + 79 x(219)#219
     + 136 x(220)#220 + 952 x(221)#221 + 603 x(222)#222 + 483 x(223)#223
     + 446 x(224)#224 + 616 x(225)#225 + 248 x(226)#226 + 388 x(227)#227
     + 372 x(228)#228 + 89 x(229)#229 + 518 x(230)#230 + 924 x(231)#231
     + 553 x(232)#232 + 10 x(233)#233 + 618 x(234)#234 + 923 x(235)#235
     + 701 x(236)#236 + 82 x(237)#237 + 35 x(238)#238 + 251 x(239)#239
     + 7 x(240)#240 + 332 x(241)#241 + 180 x(242)#242 + 658 x(243)#243
     + 330 x(244)#244 + 132 x(245)#245 + 80 x(246)#246 + 859 x(247)#247
     + 639 x(248)#248 + 431 x(249)#249 <= 29186
 c5: 74 x(0)#0 + 539 x(1)#1 + 457 x(2)#2 + 556 x(3)#3 + 698 x(4)#4 + 173 x(5)#5
     + 98 x(6)#6 + 468 x(7)#7 + 647 x(8)#8 + 932 x(9)#9 + 425 x(10)#10
     + 315 x(11)#11 + 456 x(12)#12 + 827 x(13)#13 + 625 x(14)#14 + 395 x(15)#15
     + 544 x(16)#16 + 975 x(17)#17 + 568 x(18)#18 + 52 x(19)#19 + 141 x(20)#20
     + 423 x(21)#21 + 260 x(22)#22 + 254 x(23)#23 + 703 x(24)#24 + 65 x(25)#25
     + 941 x(26)#26 + 579 x(27)#27 + 440 x(28)#28 + 52 x(29)#29 + 266 x(30)#30
     + 229 x(31)#31 + 328 x(32)#32 + 717 x(33)#33 + 509 x(34)#34 + 946 x(35)#35
     + 517 x(36)#36 + 250 x(37)#37 + 686 x(38)#38 + 593 x(39)#39 + 693 x(40)#40
     + 231 x(41)#41 + 152 x(42)#42 + 972 x(43)#43 + 963 x(44)#44 + 244 x(45)#45
     + 957 x(46)#46 + 803 x(47)#47 + 619 x(48)#48 + 291 x(49)#49 + 658 x(50)#50
     + 356 x(51)#51 + 414 x(52)#52 + 875 x(53)#53 + 123 x(54)#54 + 877 x(55)#55
     + 852 x(56)#56 + 902 x(57)#57 + 77 x(58)#58 + 549 x(59)#59 + 381 x(60)#60
     + 346 x(61)#61 + 486 x(62)#62 + 205 x(63)#63 + 189 x(64)#64 + 170 x(65)#65
     + 284 x(66)#66 + 442 x(67)#67 + 139 x(68)#68 + 330 x(69)#69 + 623 x(70)#70
     + 744 x(71)#71 + 824 x(72)#72 + 677 x(73)#73 + 72 x(74)#74 + 45 x(75)#75
     + 832 x(76)#76 + 294 x(77)#77 + 318 x(78)#78 + 482 x(79)#79 + 50 x(80)#80
     + 672 x(81)#81 + 829 x(82)#82 + 914 x(83)#83 + 238 x(84)#84 + 270 x(85)#85
     + 989 x(86)#86 + 824 x(87)#87 + 180 x(88)#88 + 722 x(89)#89 + 275 x(90)#90
     + 475 x(91)#91 + 151 x(92)#92 + 62 x(93)#93 + 122 x(94)#94 + 401 x(95)#95
     + 595 x(96)#96 + 172 x(97)#97 + 272 x(98)#98 + 796 x(99)#99
     + 484 x(100)#100 + 430 x(101)#101 + 208 x(102)#102 + 879 x(103)#103
     + 706 x(104)#104 + 677 x(105)#105 + 970 x(106)#106 + 110 x(107)#107
     + 229 x(108)#108 + 730 x(109)#109 + 588 x(110)#110 + 960 x(111)#111
     + 501 x(112)#112 + 933 x(113)#113 + 735 x(114)#114 + 470 x(115)#115
     + 534 x(116)#116 + 441 x(117)#117 + 362 x(118)#118 + 697 x(119)#119
     + 925 x(120)#120 + 556 x(121)#121 + 799 x(122)#122 + 77 x(123)#123
     + 534 x(124)#124 + 688 x(125)#125 + 880 x(126)#126 + 759 x(127)#127
     + 937 x(128)#128 + 83 x(129)#129 + 223 x(130)#130 + 512 x(131)#131
     + 544 x(132)#132 + 198 x(133)#133 + 687 x(134)#134 + 471 x(135)#135
     + 153 x(136)#136 + 423 x(137)#137 + 126 x(138)#138 + 335 x(139)#139
     + 860 x(140)#140 + 239 x(141)#141 + 759 x(142)#142 + 205 x(143)#143
     + 92 x(144)#144 + 443 x(145)#145 + 761 x(146)#146 + 896 x(147)#147
     + 61 x(148)#148 + 923 x(149)#149 + 626 x(150)#150 + 534 x(151)#151
     + 17 x(152)#152 + 756 x(153)#153 + 713 x(154)#154 + 507 x(155)#155
     + 154 x(156)#156 + 342 x(157)#157 + 573 x(158)#158 + 41 x(159)#159
     + 759 x(160)#160 + 277 x(161)#161 + 689 x(162)#162 + 62 x(163)#163
     + 79 x(164)#164 + 216 x(165)#165 + 349 x(166)#166 + 199 x(167)#167
     + 207 x(168)#168 + 892 x(169)#169 + 851 x(170)#170 + 784 x(171)#171
     + 268 x(172)#172 + 909 x(173)#173 + 6 x(174)#174 + 929 x(175)#175
     + 95 x(176)#176 + 121 x(177)#177 + 19 x(178)#178 + 656 x(179)#179
     + 187 x(180)#180 + 349 x(181)#181 + 812 x(182)#182 + 657 x(183)#183
     + 839 x(184)#184 + 691 x(185)#185 + 576 x(186)#186 + 669 x(187)#187
     + 708 x(188)#188 + 83 x(189)#189 + 436 x(190)#190 + 445 x(191)#191
     + 366 x(192)#192 + 453 x(193)#193 + 648 x(194)#194 + 669 x(195)#195
     + 226 x(196)#196 + 7 x(197)#197 + 201 x(198)#198 + 721 x(199)#199
     + 363 x(200)#200 + 147 x(201)#201 + 954 x(202)#202 + 809 x(203)#203
     + 533 x(204)#204 + 765 x(205)#205 + 850 x(206)#206 + 820 x(207)#207
     + 774 x(208)#208 + 368 x(209)#209 + 420 x(210)#210 + 805 x(211)#211
     + 280 x(212)#212 + 822 x(213)#213 + 65 x(214)#214 + 592 x(215)#215
     + 695 x(216)#216 + 49 x(217)#217 + 909 x(218)#218 + 667 x(219)#219
     + 962 x(220)#220 + 132 x(221)#221 + 43 x(222)#222 + 613 x(223)#223
     + 980 x(224)#224 + 784 x(225)#225 + 642 x(226)#226 + 455 x(227)#227
     + 424 x(228)#228 + 952 x(229)#229 + 61 x(230)#230 + 668 x(231)#231
     + 502 x(232)#232 + 964 x(233)#233 + 971 x(234)#234 + 426 x(235)#235
     + 343 x(236)#236 + 462 x(237)#237 + 459 x(238)#238 + 542 x(239)#239
     + 82 x(240)#240 + 207 x(241)#241 + 141 x(242)#242 + 529 x(243)#243
     + 316 x(244)#244 + 78 x(245)#245 + 712 x(246)#246 + 76 x(247)#247
     + 650 x(248)#248 + 533 x(249)#249 <= 30696
Bounds
 0 <= x(0)#0 <= 1
 0 <= x(1)#1 <= 1
 0 <= x(2)#2 <= 1
 0 <= x(3)#3 <= 1
 0 <= x(4)#4 <= 1
 0 <= x(5)#5 <= 1
 0 <= x(6)#6 <= 1
 0 <= x(7)#7 <= 1
 0 <= x(8)#8 <= 1
 0 <= x(9)#9 <= 1
 0 <= x(10)#10 <= 1
 0 <= x(11)#11 <= 1
 0 <= x(12)#12 <= 1
 0 <= x(13)#13 <= 1
 0 <= x(14)#14 <= 1
 0 <= x(15)#15 <= 1
 0 <= x(16)#16 <= 1
 0 <= x(17)#17 <= 1
 0 <= x(18)#18 <= 1
 0 <= x(19)#19 <= 1
 0 <= x(20)#20 <= 1
 0 <= x(21)#21 <= 1
 0 <= x(22)#22 <= 1
 0 <= x(23)#23 <= 1
 0 <= x(24)#24 <= 1
 0 <= x(25)#25 <= 1
 0 <= x(26)#26 <= 1
 0 <= x(27)#27 <= 1
 0 <= x(28)#28 <= 1
 0 <= x(29)#29 <= 1
 0 <= x(30)#30 <= 1
 0 <= x(31)#31 <= 1
 0 <= x(32)#32 <= 1
 0 <= x(33)#33 <= 1
 0 <= x(34)#34 <= 1
 0 <= x(35)#35 <= 1
 0 <= x(36)#36 <= 1
 0 <= x(37)#37 <= 1
 0 <= x(38)#38 <= 1
 0 <= x(39)#39 <= 1
 0 <= x(40)#40 <= 1
 0 <= x(41)#41 <= 1
 0 <= x(42)#42 <= 1
 0 <= x(43)#43 <= 1
 0 <= x(44)#44 <= 1
 0 <= x(45)#45 <= 1
 0 <= x(46)#46 <= 1
 0 <= x(47)#47 <= 1
 0 <= x(48)#48 <= 1
 0 <= x(49)#49 <= 1
 0 <= x(50)#50 <= 1
 0 <= x(51)#51 <= 1
 0 <= x(52)#52 <= 1
 0 <= x(53)#53 <= 1
 0 <= x(54)#54 <= 1
 0 <= x(55)#55 <= 1
 0 <= x(56)#56 <= 1
 0 <= x(57)#57 <= 1
 0 <= x(58)#58 <= 1
 0 <= x(59)#59 <= 1
 0 <= x(60)#60 <= 1
 0 <= x(61)#61 <= 1
 0 <= x(62)#62 <= 1
 0 <= x(63)#63 <= 1
 0 <= x(64)#64 <= 1
 0 <= x(65)#65 <= 1
 0 <= x(66)#66 <= 1
 0 <= x(67)#67 <= 1
 0 <= x(68)#68 <= 1
 0 <= x(69)#69 <= 1
 0 <= x(70)#70 <= 1
 0 <= x(71)#71 <= 1
 0 <= x(72)#72 <= 1
 0 <= x(73)#73 <= 1
 0 <= x(74)#74 <= 1
 0 <= x(75)#75 <= 1
 0 <= x(76)#76 <= 1
 0 <= x(77)#77 <= 1
 0 <= x(78)#78 <= 1
 0 <= x(79)#79 <= 1
 0 <= x(80)#80 <= 1
 0 <= x(81)#81 <= 1
 0 <= x(82)#82 <= 1
 0 <= x(83)#83 <= 1
 0 <= x(84)#84 <= 1
 0 <= x(85)#85 <= 1
 0 <= x(86)#86 <= 1
 0 <= x(87)#87 <= 1
 0 <= x(88)#88 <= 1
 0 <= x(89)#89 <= 1
 0 <= x(90)#90 <= 1
 0 <= x(91)#91 <= 1
 0 <= x(92)#92 <= 1
 0 <= x(93)#93 <= 1
 0 <= x(94)#94 <= 1
 0 <= x(95)#95 <= 1
 0 <= x(96)#96 <= 1
 0 <= x(97)#97 <= 1
 0 <= x(98)#98 <= 1
 0 <= x(99)#99 <= 1
 0 <= x(100)#100 <= 1
 0 <= x(101)#101 <= 1
 0 <= x(102)#102 <= 1
 0 <= x(103)#103 <= 1
 0 <= x(104)#104 <= 1
 0 <= x(105)#105 <= 1
 0 <= x(106)#106 <= 1
 0 <= x(107)#107 <= 1
 0 <= x(108)#108 <= 1
 0 <= x(109)#109 <= 1
 0 <= x(110)#110 <= 1
 0 <= x(111)#111 <= 1
 0 <= x(112)#112 <= 1
 0 <= x(113)#113 <= 1
 0 <= x(114)#114 <= 1
 0 <= x(115)#115 <= 1
 0 <= x(116)#116 <= 1
 0 <= x(117)#117 <= 1
 0 <= x(118)#118 <= 1
 0 <= x(119)#119 <= 1
 0 <= x(120)#120 <= 1
 0 <= x(121)#121 <= 1
 0 <= x(122)#122 <= 1
 0 <= x(123)#123 <= 1
 0 <= x(124)#124 <= 1
 0 <= x(125)#125 <= 1
 0 <= x(126)#126 <= 1
 0 <= x(127)#127 <= 1
 0 <= x(128)#128 <= 1
 0 <= x(129)#129 <= 1
 0 <= x(130)#130 <= 1
 0 <= x(131)#131 <= 1
 0 <= x(132)#132 <= 1
 0 <= x(133)#133 <= 1
 0 <= x(134)#134 <= 1
 0 <= x(135)#135 <= 1
 0 <= x(136)#136 <= 1
 0 <= x(137)#137 <= 1
 0 <= x(138)#138 <= 1
 0 <= x(139)#139 <= 1
 0 <= x(140)#140 <= 1
 0 <= x(141)#141 <= 1
 0 <= x(142)#142 <= 1
 0 <= x(143)#143 <= 1
 0 <= x(144)#144 <= 1
 0 <= x(145)#145 <= 1
 0 <= x(146)#146 <= 1
 0 <= x(147)#147 <= 1
 0 <= x(148)#148 <= 1
 0 <= x(149)#149 <= 1
 0 <= x(150)#150 <= 1
 0 <= x(151)#151 <= 1
 0 <= x(152)#152 <= 1
 0 <= x(153)#153 <= 1
 0 <= x(154)#154 <= 1
 0 <= x(155)#155 <= 1
 0 <= x(156)#156 <= 1
 0 <= x(157)#157 <= 1
 0 <= x(158)#158 <= 1
 0 <= x(159)#159 <= 1
 0 <= x(160)#160 <= 1
 0 <= x(161)#161 <= 1
 0 <= x(162)#162 <= 1
 0 <= x(163)#163 <= 1
 0 <= x(164)#164 <= 1
 0 <= x(165)#165 <= 1
 0 <= x(166)#166 <= 1
 0 <= x(167)#167 <= 1
 0 <= x(168)#168 <= 1
 0 <= x(169)#169 <= 1
 0 <= x(170)#170 <= 1
 0 <= x(171)#171 <= 1
 0 <= x(172)#172 <= 1
 0 <= x(173)#173 <= 1
 0 <= x(174)#174 <= 1
 0 <= x(175)#175 <= 1
 0 <= x(176)#176 <= 1
 0 <= x(177)#177 <= 1
 0 <= x(178)#178 <= 1
 0 <= x(179)#179 <= 1
 0 <= x(180)#180 <= 1
 0 <= x(181)#181 <= 1
 0 <= x(182)#182 <= 1
 0 <= x(183)#183 <= 1
 0 <= x(184)#184 <= 1
 0 <= x(185)#185 <= 1
 0 <= x(186)#186 <= 1
 0 <= x(187)#187 <= 1
 0 <= x(188)#188 <= 1
 0 <= x(189)#189 <= 1
 0 <= x(190)#190 <= 1
 0 <= x(191)#191 <= 1
 0 <= x(192)#192 <= 1
 0 <= x(193)#193 <= 1
 0 <= x(194)#194 <= 1
 0 <= x(195)#195 <= 1
 0 <= x(196)#196 <= 1
 0 <= x(197)#197 <= 1
 0 <= x(198)#198 <= 1
 0 <= x(199)#199 <= 1
 0 <= x(200)#200 <= 1
 0 <= x(201)#201 <= 1
 0 <= x(202)#202 <= 1
 0 <= x(203)#203 <= 1
 0 <= x(204)#204 <= 1
 0 <= x(205)#205 <= 1
 0 <= x(206)#206 <= 1
 0 <= x(207)#207 <= 1
 0 <= x(208)#208 <= 1
 0 <= x(209)#209 <= 1
 0 <= x(210)#210 <= 1
 0 <= x(211)#211 <= 1
 0 <= x(212)#212 <= 1
 0 <= x(213)#213 <= 1
 0 <= x(214)#214 <= 1
 0 <= x(215)#215 <= 1
 0 <= x(216)#216 <= 1
 0 <= x(217)#217 <= 1
 0 <= x(218)#218 <= 1
 0 <= x(219)#219 <= 1
 0 <= x(220)#220 <= 1
 0 <= x(221)#221 <= 1
 0 <= x(222)#222 <= 1
 0 <= x(223)#223 <= 1
 0 <= x(224)#224 <= 1
 0 <= x(225)#225 <= 1
 0 <= x(226)#226 <= 1
 0 <= x(227)#227 <= 1
 0 <= x(228)#228 <= 1
 0 <= x(229)#229 <= 1
 0 <= x(230)#230 <= 1
 0 <= x(231)#231 <= 1
 0 <= x(232)#232 <= 1
 0 <= x(233)#233 <= 1
 0 <= x(234)#234 <= 1
 0 <= x(235)#235 <= 1
 0 <= x(236)#236 <= 1
 0 <= x(237)#237 <= 1
 0 <= x(238)#238 <= 1
 0 <= x(239)#239 <= 1
 0 <= x(240)#240 <= 1
 0 <= x(241)#241 <= 1
 0 <= x(242)#242 <= 1
 0 <= x(243)#243 <= 1
 0 <= x(244)#244 <= 1
 0 <= x(245)#245 <= 1
 0 <= x(246)#246 <= 1
 0 <= x(247)#247 <= 1
 0 <= x(248)#248 <= 1
 0 <= x(249)#249 <= 1
Generals
 x(0)#0  x(1)#1  x(2)#2  x(3)#3  x(4)#4  x(5)#5  x(6)#6  x(7)#7  x(8)#8 
 x(9)#9  x(10)#10  x(11)#11  x(12)#12  x(13)#13  x(14)#14  x(15)#15  x(16)#16 
 x(17)#17  x(18)#18  x(19)#19  x(20)#20  x(21)#21  x(22)#22  x(23)#23 
 x(24)#24  x(25)#25  x(26)#26  x(27)#27  x(28)#28  x(29)#29  x(30)#30 
 x(31)#31  x(32)#32  x(33)#33  x(34)#34  x(35)#35  x(36)#36  x(37)#37 
 x(38)#38  x(39)#39  x(40)#40  x(41)#41  x(42)#42  x(43)#43  x(44)#44 
 x(45)#45  x(46)#46  x(47)#47  x(48)#48  x(49)#49  x(50)#50  x(51)#51 
 x(52)#52  x(53)#53  x(54)#54  x(55)#55  x(56)#56  x(57)#57  x(58)#58 
 x(59)#59  x(60)#60  x(61)#61  x(62)#62  x(63)#63  x(64)#64  x(65)#65 
 x(66)#66  x(67)#67  x(68)#68  x(69)#69  x(70)#70  x(71)#71  x(72)#72 
 x(73)#73  x(74)#74  x(75)#75  x(76)#76  x(77)#77  x(78)#78  x(79)#79 
 x(80)#80  x(81)#81  x(82)#82  x(83)#83  x(84)#84  x(85)#85  x(86)#86 
 x(87)#87  x(88)#88  x(89)#89  x(90)#90  x(91)#91  x(92)#92  x(93)#93 
 x(94)#94  x(95)#95  x(96)#96  x(97)#97  x(98)#98  x(99)#99  x(100)#100 
 x(101)#101  x(102)#102  x(103)#103  x(104)#104  x(105)#105  x(106)#106 
 x(107)#107  x(108)#108  x(109)#109  x(110)#110  x(111)#111  x(112)#112 
 x(113)#113  x(114)#114  x(115)#115  x(116)#116  x(117)#117  x(118)#118 
 x(119)#119  x(120)#120  x(121)#121  x(122)#122  x(123)#123  x(124)#124 
 x(125)#125  x(126)#126  x(127)#127  x(128)#128  x(129)#129  x(130)#130 
 x(131)#131  x(132)#132  x(133)#133  x(134)#134  x(135)#135  x(136)#136 
 x(137)#137  x(138)#138  x(139)#139  x(140)#140  x(141)#141  x(142)#142 
 x(143)#143  x(144)#144  x(145)#145  x(146)#146  x(147)#147  x(148)#148 
 x(149)#149  x(150)#150  x(151)#151  x(152)#152  x(153)#153  x(154)#154 
 x(155)#155  x(156)#156  x(157)#157  x(158)#158  x(159)#159  x(160)#160 
 x(161)#161  x(162)#162  x(163)#163  x(164)#164  x(165)#165  x(166)#166 
 x(167)#167  x(168)#168  x(169)#169  x(170)#170  x(171)#171  x(172)#172 
 x(173)#173  x(174)#174  x(175)#175  x(176)#176  x(177)#177  x(178)#178 
 x(179)#179  x(180)#180  x(181)#181  x(182)#182  x(183)#183  x(184)#184 
 x(185)#185  x(186)#186  x(187)#187  x(188)#188  x(189)#189  x(190)#190 
 x(191)#191  x(192)#192  x(193)#193  x(194)#194  x(195)#195  x(196)#196 
 x(197)#197  x(198)#198  x(199)#199  x(200)#200  x(201)#201  x(202)#202 
 x(203)#203  x(204)#204  x(205)#205  x(206)#206  x(207)#207  x(208)#208 
 x(209)#209  x(210)#210  x(211)#211  x(212)#212  x(213)#213  x(214)#214 
 x(215)#215  x(216)#216  x(217)#217  x(218)#218  x(219)#219  x(220)#220 
 x(221)#221  x(222)#222  x(223)#223  x(224)#224  x(225)#225  x(226)#226 
 x(227)#227  x(228)#228  x(229)#229  x(230)#230  x(231)#231  x(232)#232 
 x(233)#233  x(234)#234  x(235)#235  x(236)#236  x(237)#237  x(238)#238 
 x(239)#239  x(240)#240  x(241)#241  x(242)#242  x(243)#243  x(244)#244 
 x(245)#245  x(246)#246  x(247)#247  x(248)#248  x(249)#249 
End
